c Reduced graph for r27 generated by Cyril Grelier
p edge 254 2946
e 1 2
e 1 3
e 1 4
e 1 7
e 1 10
e 1 13
e 1 14
e 1 17
e 1 20
e 1 22
e 1 25
e 1 29
e 1 32
e 1 33
e 1 34
e 1 35
e 1 39
e 1 45
e 1 47
e 1 48
e 1 49
e 1 50
e 1 73
e 1 77
e 1 90
e 1 118
e 1 119
e 1 120
e 1 159
e 1 253
e 2 3
e 2 5
e 2 8
e 2 11
e 2 15
e 2 18
e 2 21
e 2 23
e 2 27
e 2 30
e 2 32
e 2 33
e 2 34
e 2 35
e 2 40
e 2 43
e 2 46
e 2 47
e 2 48
e 2 49
e 2 50
e 2 53
e 2 73
e 2 91
e 2 118
e 2 119
e 2 120
e 2 126
e 2 159
e 3 6
e 3 9
e 3 12
e 3 16
e 3 19
e 3 24
e 3 26
e 3 28
e 3 31
e 3 32
e 3 33
e 3 34
e 3 35
e 3 37
e 3 44
e 3 47
e 3 48
e 3 49
e 3 50
e 3 54
e 3 73
e 3 92
e 3 118
e 3 119
e 3 120
e 3 127
e 3 159
e 3 254
e 4 5
e 4 6
e 4 7
e 4 10
e 4 13
e 4 14
e 4 17
e 4 20
e 4 22
e 4 25
e 4 29
e 4 36
e 4 39
e 4 45
e 4 55
e 4 56
e 4 57
e 4 77
e 4 81
e 4 82
e 4 83
e 4 84
e 4 90
e 4 162
e 4 163
e 4 196
e 4 253
e 5 6
e 5 8
e 5 11
e 5 15
e 5 18
e 5 21
e 5 23
e 5 27
e 5 30
e 5 36
e 5 40
e 5 43
e 5 46
e 5 53
e 5 55
e 5 56
e 5 57
e 5 81
e 5 82
e 5 83
e 5 84
e 5 91
e 5 126
e 5 162
e 5 163
e 5 196
e 6 9
e 6 12
e 6 16
e 6 19
e 6 24
e 6 26
e 6 28
e 6 31
e 6 36
e 6 37
e 6 44
e 6 54
e 6 55
e 6 56
e 6 57
e 6 81
e 6 82
e 6 83
e 6 84
e 6 92
e 6 127
e 6 162
e 6 163
e 6 196
e 6 254
e 7 8
e 7 9
e 7 10
e 7 13
e 7 14
e 7 17
e 7 20
e 7 22
e 7 25
e 7 29
e 7 38
e 7 39
e 7 45
e 7 59
e 7 60
e 7 61
e 7 77
e 7 90
e 7 96
e 7 97
e 7 98
e 7 170
e 7 171
e 7 202
e 7 203
e 7 253
e 8 9
e 8 11
e 8 15
e 8 18
e 8 21
e 8 23
e 8 27
e 8 30
e 8 38
e 8 40
e 8 43
e 8 46
e 8 53
e 8 59
e 8 60
e 8 61
e 8 91
e 8 96
e 8 97
e 8 98
e 8 126
e 8 170
e 8 171
e 8 202
e 8 203
e 9 12
e 9 16
e 9 19
e 9 24
e 9 26
e 9 28
e 9 31
e 9 37
e 9 38
e 9 44
e 9 54
e 9 59
e 9 60
e 9 61
e 9 92
e 9 96
e 9 97
e 9 98
e 9 127
e 9 170
e 9 171
e 9 202
e 9 203
e 9 254
e 10 11
e 10 12
e 10 13
e 10 14
e 10 17
e 10 20
e 10 22
e 10 25
e 10 29
e 10 39
e 10 41
e 10 45
e 10 62
e 10 63
e 10 64
e 10 65
e 10 77
e 10 90
e 10 100
e 10 101
e 10 102
e 10 103
e 10 147
e 10 205
e 10 253
e 11 12
e 11 15
e 11 18
e 11 21
e 11 23
e 11 27
e 11 30
e 11 40
e 11 41
e 11 43
e 11 46
e 11 53
e 11 62
e 11 63
e 11 64
e 11 65
e 11 91
e 11 100
e 11 101
e 11 102
e 11 103
e 11 126
e 11 147
e 11 205
e 12 16
e 12 19
e 12 24
e 12 26
e 12 28
e 12 31
e 12 37
e 12 41
e 12 44
e 12 54
e 12 62
e 12 63
e 12 64
e 12 65
e 12 92
e 12 100
e 12 101
e 12 102
e 12 103
e 12 127
e 12 147
e 12 205
e 12 254
e 13 14
e 13 17
e 13 20
e 13 22
e 13 25
e 13 29
e 13 39
e 13 42
e 13 45
e 13 66
e 13 67
e 13 68
e 13 77
e 13 90
e 13 104
e 13 105
e 13 106
e 13 107
e 13 108
e 13 175
e 13 206
e 13 207
e 13 208
e 13 253
e 14 15
e 14 16
e 14 17
e 14 20
e 14 22
e 14 25
e 14 29
e 14 39
e 14 45
e 14 69
e 14 70
e 14 71
e 14 77
e 14 90
e 14 110
e 14 111
e 14 112
e 14 113
e 14 114
e 14 154
e 14 183
e 14 184
e 14 253
e 15 16
e 15 18
e 15 21
e 15 23
e 15 27
e 15 30
e 15 40
e 15 43
e 15 46
e 15 53
e 15 69
e 15 70
e 15 71
e 15 91
e 15 110
e 15 111
e 15 112
e 15 113
e 15 114
e 15 126
e 15 154
e 15 183
e 15 184
e 16 19
e 16 24
e 16 26
e 16 28
e 16 31
e 16 37
e 16 44
e 16 54
e 16 69
e 16 70
e 16 71
e 16 92
e 16 110
e 16 111
e 16 112
e 16 113
e 16 114
e 16 127
e 16 154
e 16 183
e 16 184
e 16 254
e 17 18
e 17 19
e 17 20
e 17 22
e 17 25
e 17 29
e 17 39
e 17 45
e 17 51
e 17 74
e 17 75
e 17 76
e 17 77
e 17 90
e 17 121
e 17 122
e 17 123
e 17 186
e 17 187
e 17 211
e 17 253
e 18 19
e 18 21
e 18 23
e 18 27
e 18 30
e 18 40
e 18 43
e 18 46
e 18 51
e 18 53
e 18 74
e 18 75
e 18 76
e 18 91
e 18 121
e 18 122
e 18 123
e 18 126
e 18 186
e 18 187
e 18 211
e 19 24
e 19 26
e 19 28
e 19 31
e 19 37
e 19 44
e 19 51
e 19 54
e 19 74
e 19 75
e 19 76
e 19 92
e 19 121
e 19 122
e 19 123
e 19 127
e 19 186
e 19 187
e 19 211
e 19 254
e 20 21
e 20 22
e 20 25
e 20 29
e 20 39
e 20 45
e 20 52
e 20 77
e 20 78
e 20 79
e 20 80
e 20 90
e 20 124
e 20 125
e 20 189
e 20 190
e 20 191
e 20 216
e 20 217
e 20 253
e 21 23
e 21 27
e 21 30
e 21 40
e 21 43
e 21 46
e 21 52
e 21 53
e 21 78
e 21 79
e 21 80
e 21 91
e 21 124
e 21 125
e 21 126
e 21 189
e 21 190
e 21 191
e 21 216
e 21 217
e 22 23
e 22 24
e 22 25
e 22 29
e 22 39
e 22 45
e 22 77
e 22 85
e 22 86
e 22 87
e 22 90
e 22 129
e 22 130
e 22 131
e 22 132
e 22 164
e 22 218
e 22 219
e 22 253
e 23 24
e 23 27
e 23 30
e 23 40
e 23 43
e 23 46
e 23 53
e 23 85
e 23 86
e 23 87
e 23 91
e 23 126
e 23 129
e 23 130
e 23 131
e 23 132
e 23 164
e 23 218
e 23 219
e 24 26
e 24 28
e 24 31
e 24 37
e 24 44
e 24 54
e 24 85
e 24 86
e 24 87
e 24 92
e 24 127
e 24 129
e 24 130
e 24 131
e 24 132
e 24 164
e 24 218
e 24 219
e 24 254
e 25 26
e 25 29
e 25 39
e 25 45
e 25 58
e 25 77
e 25 88
e 25 89
e 25 90
e 25 133
e 25 134
e 25 135
e 25 165
e 25 197
e 25 198
e 25 220
e 25 221
e 25 253
e 26 28
e 26 31
e 26 37
e 26 44
e 26 54
e 26 58
e 26 88
e 26 89
e 26 92
e 26 127
e 26 133
e 26 134
e 26 135
e 26 165
e 26 197
e 26 198
e 26 220
e 26 221
e 26 254
e 27 28
e 27 30
e 27 40
e 27 43
e 27 46
e 27 53
e 27 91
e 27 93
e 27 94
e 27 126
e 27 136
e 27 137
e 27 138
e 27 139
e 27 140
e 27 200
e 27 224
e 27 225
e 27 226
e 28 31
e 28 37
e 28 44
e 28 54
e 28 92
e 28 93
e 28 94
e 28 127
e 28 136
e 28 137
e 28 138
e 28 139
e 28 140
e 28 200
e 28 224
e 28 225
e 28 226
e 28 254
e 29 30
e 29 31
e 29 39
e 29 45
e 29 72
e 29 77
e 29 90
e 29 115
e 29 116
e 29 117
e 29 155
e 29 156
e 29 157
e 29 158
e 29 185
e 29 232
e 29 253
e 30 31
e 30 40
e 30 43
e 30 46
e 30 53
e 30 72
e 30 91
e 30 115
e 30 116
e 30 117
e 30 126
e 30 155
e 30 156
e 30 157
e 30 158
e 30 185
e 30 232
e 31 37
e 31 44
e 31 54
e 31 72
e 31 92
e 31 115
e 31 116
e 31 117
e 31 127
e 31 155
e 31 156
e 31 157
e 31 158
e 31 185
e 31 232
e 31 254
e 32 33
e 32 34
e 32 35
e 32 47
e 32 48
e 32 49
e 32 50
e 32 55
e 32 59
e 32 62
e 32 66
e 32 69
e 32 73
e 32 85
e 32 93
e 32 115
e 32 118
e 32 119
e 32 120
e 32 141
e 32 148
e 32 159
e 32 160
e 32 199
e 33 34
e 33 35
e 33 47
e 33 48
e 33 49
e 33 50
e 33 60
e 33 63
e 33 67
e 33 73
e 33 74
e 33 78
e 33 86
e 33 88
e 33 116
e 33 118
e 33 119
e 33 120
e 33 144
e 33 149
e 33 152
e 33 159
e 33 161
e 34 35
e 34 47
e 34 48
e 34 49
e 34 50
e 34 56
e 34 61
e 34 64
e 34 70
e 34 73
e 34 75
e 34 79
e 34 89
e 34 94
e 34 118
e 34 119
e 34 120
e 34 142
e 34 145
e 34 150
e 34 153
e 34 159
e 35 47
e 35 48
e 35 49
e 35 50
e 35 57
e 35 65
e 35 68
e 35 71
e 35 73
e 35 76
e 35 80
e 35 87
e 35 117
e 35 118
e 35 119
e 35 120
e 35 143
e 35 146
e 35 151
e 35 159
e 35 188
e 36 38
e 36 41
e 36 42
e 36 51
e 36 52
e 36 55
e 36 56
e 36 57
e 36 58
e 36 72
e 36 81
e 36 82
e 36 83
e 36 84
e 36 95
e 36 99
e 36 109
e 36 128
e 36 162
e 36 163
e 36 166
e 36 192
e 36 196
e 37 44
e 37 54
e 37 92
e 37 95
e 37 127
e 37 141
e 37 142
e 37 143
e 37 167
e 37 168
e 37 169
e 37 201
e 37 227
e 37 240
e 37 241
e 37 254
e 38 41
e 38 42
e 38 51
e 38 52
e 38 58
e 38 59
e 38 60
e 38 61
e 38 72
e 38 95
e 38 96
e 38 97
e 38 98
e 38 99
e 38 109
e 38 128
e 38 166
e 38 170
e 38 171
e 38 192
e 38 202
e 38 203
e 39 40
e 39 45
e 39 77
e 39 90
e 39 99
e 39 144
e 39 145
e 39 146
e 39 172
e 39 173
e 39 174
e 39 204
e 39 228
e 39 242
e 39 253
e 40 43
e 40 46
e 40 53
e 40 91
e 40 99
e 40 126
e 40 144
e 40 145
e 40 146
e 40 172
e 40 173
e 40 174
e 40 204
e 40 228
e 40 242
e 41 42
e 41 51
e 41 52
e 41 58
e 41 62
e 41 63
e 41 64
e 41 65
e 41 72
e 41 95
e 41 99
e 41 100
e 41 101
e 41 102
e 41 103
e 41 109
e 41 128
e 41 147
e 41 166
e 41 192
e 41 205
e 42 51
e 42 52
e 42 58
e 42 66
e 42 67
e 42 68
e 42 72
e 42 95
e 42 99
e 42 104
e 42 105
e 42 106
e 42 107
e 42 108
e 42 109
e 42 128
e 42 166
e 42 175
e 42 192
e 42 206
e 42 207
e 42 208
e 43 44
e 43 46
e 43 53
e 43 91
e 43 126
e 43 148
e 43 149
e 43 150
e 43 151
e 43 176
e 43 177
e 43 178
e 43 209
e 43 229
e 43 230
e 44 54
e 44 92
e 44 127
e 44 148
e 44 149
e 44 150
e 44 151
e 44 176
e 44 177
e 44 178
e 44 209
e 44 229
e 44 230
e 44 254
e 45 46
e 45 77
e 45 90
e 45 109
e 45 152
e 45 153
e 45 179
e 45 180
e 45 181
e 45 182
e 45 210
e 45 231
e 45 243
e 45 253
e 46 53
e 46 91
e 46 109
e 46 126
e 46 152
e 46 153
e 46 179
e 46 180
e 46 181
e 46 182
e 46 210
e 46 231
e 46 243
e 47 48
e 47 49
e 47 50
e 47 73
e 47 81
e 47 104
e 47 110
e 47 118
e 47 119
e 47 120
e 47 133
e 47 136
e 47 155
e 47 159
e 47 167
e 47 179
e 47 193
e 47 212
e 47 234
e 48 49
e 48 50
e 48 73
e 48 82
e 48 100
e 48 111
e 48 118
e 48 119
e 48 120
e 48 121
e 48 124
e 48 137
e 48 156
e 48 159
e 48 168
e 48 172
e 48 180
e 48 213
e 49 50
e 49 73
e 49 102
e 49 106
e 49 118
e 49 119
e 49 120
e 49 123
e 49 130
e 49 138
e 49 159
e 49 173
e 49 176
e 49 181
e 49 194
e 49 215
e 49 223
e 50 73
e 50 84
e 50 97
e 50 103
e 50 107
e 50 113
e 50 118
e 50 119
e 50 120
e 50 131
e 50 139
e 50 157
e 50 159
e 50 169
e 50 177
e 50 236
e 51 52
e 51 58
e 51 72
e 51 74
e 51 75
e 51 76
e 51 95
e 51 99
e 51 109
e 51 121
e 51 122
e 51 123
e 51 128
e 51 166
e 51 186
e 51 187
e 51 192
e 51 211
e 52 58
e 52 72
e 52 78
e 52 79
e 52 80
e 52 95
e 52 99
e 52 109
e 52 124
e 52 125
e 52 128
e 52 166
e 52 189
e 52 190
e 52 191
e 52 192
e 52 216
e 52 217
e 53 54
e 53 91
e 53 126
e 53 128
e 53 160
e 53 161
e 53 193
e 53 194
e 53 195
e 53 238
e 53 239
e 53 245
e 54 92
e 54 127
e 54 128
e 54 160
e 54 161
e 54 193
e 54 194
e 54 195
e 54 238
e 54 239
e 54 245
e 54 254
e 55 56
e 55 57
e 55 59
e 55 62
e 55 66
e 55 69
e 55 81
e 55 82
e 55 83
e 55 84
e 55 85
e 55 93
e 55 115
e 55 141
e 55 148
e 55 160
e 55 162
e 55 163
e 55 196
e 55 199
e 56 57
e 56 61
e 56 64
e 56 70
e 56 75
e 56 79
e 56 81
e 56 82
e 56 83
e 56 84
e 56 89
e 56 94
e 56 142
e 56 145
e 56 150
e 56 153
e 56 162
e 56 163
e 56 196
e 57 65
e 57 68
e 57 71
e 57 76
e 57 80
e 57 81
e 57 82
e 57 83
e 57 84
e 57 87
e 57 117
e 57 143
e 57 146
e 57 151
e 57 162
e 57 163
e 57 188
e 57 196
e 58 72
e 58 88
e 58 89
e 58 95
e 58 99
e 58 109
e 58 128
e 58 133
e 58 134
e 58 135
e 58 165
e 58 166
e 58 192
e 58 197
e 58 198
e 58 220
e 58 221
e 59 60
e 59 61
e 59 62
e 59 66
e 59 69
e 59 85
e 59 93
e 59 96
e 59 97
e 59 98
e 59 115
e 59 141
e 59 148
e 59 160
e 59 170
e 59 171
e 59 199
e 59 202
e 59 203
e 60 61
e 60 63
e 60 67
e 60 74
e 60 78
e 60 86
e 60 88
e 60 96
e 60 97
e 60 98
e 60 116
e 60 144
e 60 149
e 60 152
e 60 161
e 60 170
e 60 171
e 60 202
e 60 203
e 61 64
e 61 70
e 61 75
e 61 79
e 61 89
e 61 94
e 61 96
e 61 97
e 61 98
e 61 142
e 61 145
e 61 150
e 61 153
e 61 170
e 61 171
e 61 202
e 61 203
e 62 63
e 62 64
e 62 65
e 62 66
e 62 69
e 62 85
e 62 93
e 62 100
e 62 101
e 62 102
e 62 103
e 62 115
e 62 141
e 62 147
e 62 148
e 62 160
e 62 199
e 62 205
e 63 64
e 63 65
e 63 67
e 63 74
e 63 78
e 63 86
e 63 88
e 63 100
e 63 101
e 63 102
e 63 103
e 63 116
e 63 144
e 63 147
e 63 149
e 63 152
e 63 161
e 63 205
e 64 65
e 64 70
e 64 75
e 64 79
e 64 89
e 64 94
e 64 100
e 64 101
e 64 102
e 64 103
e 64 142
e 64 145
e 64 147
e 64 150
e 64 153
e 64 205
e 65 68
e 65 71
e 65 76
e 65 80
e 65 87
e 65 100
e 65 101
e 65 102
e 65 103
e 65 117
e 65 143
e 65 146
e 65 147
e 65 151
e 65 188
e 65 205
e 66 67
e 66 68
e 66 69
e 66 85
e 66 93
e 66 104
e 66 105
e 66 106
e 66 107
e 66 108
e 66 115
e 66 141
e 66 148
e 66 160
e 66 175
e 66 199
e 66 206
e 66 207
e 66 208
e 67 68
e 67 74
e 67 78
e 67 86
e 67 88
e 67 104
e 67 105
e 67 106
e 67 107
e 67 108
e 67 116
e 67 144
e 67 149
e 67 152
e 67 161
e 67 175
e 67 206
e 67 207
e 67 208
e 68 71
e 68 76
e 68 80
e 68 87
e 68 104
e 68 105
e 68 106
e 68 107
e 68 108
e 68 117
e 68 143
e 68 146
e 68 151
e 68 175
e 68 188
e 68 206
e 68 207
e 68 208
e 69 70
e 69 71
e 69 85
e 69 93
e 69 110
e 69 111
e 69 112
e 69 113
e 69 114
e 69 115
e 69 141
e 69 148
e 69 154
e 69 160
e 69 183
e 69 184
e 69 199
e 70 71
e 70 75
e 70 79
e 70 89
e 70 94
e 70 110
e 70 111
e 70 112
e 70 113
e 70 114
e 70 142
e 70 145
e 70 150
e 70 153
e 70 154
e 70 183
e 70 184
e 71 76
e 71 80
e 71 87
e 71 110
e 71 111
e 71 112
e 71 113
e 71 114
e 71 117
e 71 143
e 71 146
e 71 151
e 71 154
e 71 183
e 71 184
e 71 188
e 72 95
e 72 99
e 72 109
e 72 115
e 72 116
e 72 117
e 72 128
e 72 155
e 72 156
e 72 157
e 72 158
e 72 166
e 72 185
e 72 192
e 72 232
e 73 118
e 73 119
e 73 120
e 73 147
e 73 154
e 73 159
e 73 164
e 73 165
e 73 185
e 73 201
e 73 204
e 73 209
e 73 210
e 73 233
e 74 75
e 74 76
e 74 78
e 74 86
e 74 88
e 74 116
e 74 121
e 74 122
e 74 123
e 74 144
e 74 149
e 74 152
e 74 161
e 74 186
e 74 187
e 74 211
e 75 76
e 75 79
e 75 89
e 75 94
e 75 121
e 75 122
e 75 123
e 75 142
e 75 145
e 75 150
e 75 153
e 75 186
e 75 187
e 75 211
e 76 80
e 76 87
e 76 117
e 76 121
e 76 122
e 76 123
e 76 143
e 76 146
e 76 151
e 76 186
e 76 187
e 76 188
e 76 211
e 77 90
e 77 188
e 77 212
e 77 213
e 77 214
e 77 215
e 77 233
e 77 244
e 77 248
e 77 249
e 77 253
e 78 79
e 78 80
e 78 86
e 78 88
e 78 116
e 78 124
e 78 125
e 78 144
e 78 149
e 78 152
e 78 161
e 78 189
e 78 190
e 78 191
e 78 216
e 78 217
e 79 80
e 79 89
e 79 94
e 79 124
e 79 125
e 79 142
e 79 145
e 79 150
e 79 153
e 79 189
e 79 190
e 79 191
e 79 216
e 79 217
e 80 87
e 80 117
e 80 124
e 80 125
e 80 143
e 80 146
e 80 151
e 80 188
e 80 189
e 80 190
e 80 191
e 80 216
e 80 217
e 81 82
e 81 83
e 81 84
e 81 104
e 81 110
e 81 133
e 81 136
e 81 155
e 81 162
e 81 163
e 81 167
e 81 179
e 81 193
e 81 196
e 81 212
e 81 234
e 82 83
e 82 84
e 82 100
e 82 111
e 82 121
e 82 124
e 82 137
e 82 156
e 82 162
e 82 163
e 82 168
e 82 172
e 82 180
e 82 196
e 82 213
e 83 84
e 83 96
e 83 101
e 83 105
e 83 112
e 83 122
e 83 125
e 83 129
e 83 134
e 83 162
e 83 163
e 83 196
e 83 214
e 83 222
e 83 235
e 84 97
e 84 103
e 84 107
e 84 113
e 84 131
e 84 139
e 84 157
e 84 162
e 84 163
e 84 169
e 84 177
e 84 196
e 84 236
e 85 86
e 85 87
e 85 93
e 85 115
e 85 129
e 85 130
e 85 131
e 85 132
e 85 141
e 85 148
e 85 160
e 85 164
e 85 199
e 85 218
e 85 219
e 86 87
e 86 88
e 86 116
e 86 129
e 86 130
e 86 131
e 86 132
e 86 144
e 86 149
e 86 152
e 86 161
e 86 164
e 86 218
e 86 219
e 87 117
e 87 129
e 87 130
e 87 131
e 87 132
e 87 143
e 87 146
e 87 151
e 87 164
e 87 188
e 87 218
e 87 219
e 88 89
e 88 116
e 88 133
e 88 134
e 88 135
e 88 144
e 88 149
e 88 152
e 88 161
e 88 165
e 88 197
e 88 198
e 88 220
e 88 221
e 89 94
e 89 133
e 89 134
e 89 135
e 89 142
e 89 145
e 89 150
e 89 153
e 89 165
e 89 197
e 89 198
e 89 220
e 89 221
e 90 91
e 90 92
e 90 166
e 90 199
e 90 222
e 90 223
e 90 246
e 90 247
e 90 252
e 90 253
e 91 92
e 91 126
e 91 166
e 91 199
e 91 222
e 91 223
e 91 246
e 91 247
e 91 252
e 92 127
e 92 166
e 92 199
e 92 222
e 92 223
e 92 246
e 92 247
e 92 252
e 92 254
e 93 94
e 93 115
e 93 136
e 93 137
e 93 138
e 93 139
e 93 140
e 93 141
e 93 148
e 93 160
e 93 199
e 93 200
e 93 224
e 93 225
e 93 226
e 94 136
e 94 137
e 94 138
e 94 139
e 94 140
e 94 142
e 94 145
e 94 150
e 94 153
e 94 200
e 94 224
e 94 225
e 94 226
e 95 99
e 95 109
e 95 128
e 95 141
e 95 142
e 95 143
e 95 166
e 95 167
e 95 168
e 95 169
e 95 192
e 95 201
e 95 227
e 95 240
e 95 241
e 96 97
e 96 98
e 96 101
e 96 105
e 96 112
e 96 122
e 96 125
e 96 129
e 96 134
e 96 170
e 96 171
e 96 202
e 96 203
e 96 214
e 96 222
e 96 235
e 97 98
e 97 103
e 97 107
e 97 113
e 97 131
e 97 139
e 97 157
e 97 169
e 97 170
e 97 171
e 97 177
e 97 202
e 97 203
e 97 236
e 98 108
e 98 114
e 98 132
e 98 135
e 98 140
e 98 158
e 98 170
e 98 171
e 98 174
e 98 178
e 98 182
e 98 195
e 98 202
e 98 203
e 98 237
e 99 109
e 99 128
e 99 144
e 99 145
e 99 146
e 99 166
e 99 172
e 99 173
e 99 174
e 99 192
e 99 204
e 99 228
e 99 242
e 100 101
e 100 102
e 100 103
e 100 111
e 100 121
e 100 124
e 100 137
e 100 147
e 100 156
e 100 168
e 100 172
e 100 180
e 100 205
e 100 213
e 101 102
e 101 103
e 101 105
e 101 112
e 101 122
e 101 125
e 101 129
e 101 134
e 101 147
e 101 205
e 101 214
e 101 222
e 101 235
e 102 103
e 102 106
e 102 123
e 102 130
e 102 138
e 102 147
e 102 173
e 102 176
e 102 181
e 102 194
e 102 205
e 102 215
e 102 223
e 103 107
e 103 113
e 103 131
e 103 139
e 103 147
e 103 157
e 103 169
e 103 177
e 103 205
e 103 236
e 104 105
e 104 106
e 104 107
e 104 108
e 104 110
e 104 133
e 104 136
e 104 155
e 104 167
e 104 175
e 104 179
e 104 193
e 104 206
e 104 207
e 104 208
e 104 212
e 104 234
e 105 106
e 105 107
e 105 108
e 105 112
e 105 122
e 105 125
e 105 129
e 105 134
e 105 175
e 105 206
e 105 207
e 105 208
e 105 214
e 105 222
e 105 235
e 106 107
e 106 108
e 106 123
e 106 130
e 106 138
e 106 173
e 106 175
e 106 176
e 106 181
e 106 194
e 106 206
e 106 207
e 106 208
e 106 215
e 106 223
e 107 108
e 107 113
e 107 131
e 107 139
e 107 157
e 107 169
e 107 175
e 107 177
e 107 206
e 107 207
e 107 208
e 107 236
e 108 114
e 108 132
e 108 135
e 108 140
e 108 158
e 108 174
e 108 175
e 108 178
e 108 182
e 108 195
e 108 206
e 108 207
e 108 208
e 108 237
e 109 128
e 109 152
e 109 153
e 109 166
e 109 179
e 109 180
e 109 181
e 109 182
e 109 192
e 109 210
e 109 231
e 109 243
e 110 111
e 110 112
e 110 113
e 110 114
e 110 133
e 110 136
e 110 154
e 110 155
e 110 167
e 110 179
e 110 183
e 110 184
e 110 193
e 110 212
e 110 234
e 111 112
e 111 113
e 111 114
e 111 121
e 111 124
e 111 137
e 111 154
e 111 156
e 111 168
e 111 172
e 111 180
e 111 183
e 111 184
e 111 213
e 112 113
e 112 114
e 112 122
e 112 125
e 112 129
e 112 134
e 112 154
e 112 183
e 112 184
e 112 214
e 112 222
e 112 235
e 113 114
e 113 131
e 113 139
e 113 154
e 113 157
e 113 169
e 113 177
e 113 183
e 113 184
e 113 236
e 114 132
e 114 135
e 114 140
e 114 154
e 114 158
e 114 174
e 114 178
e 114 182
e 114 183
e 114 184
e 114 195
e 114 237
e 115 116
e 115 117
e 115 141
e 115 148
e 115 155
e 115 156
e 115 157
e 115 158
e 115 160
e 115 185
e 115 199
e 115 232
e 116 117
e 116 144
e 116 149
e 116 152
e 116 155
e 116 156
e 116 157
e 116 158
e 116 161
e 116 185
e 116 232
e 117 143
e 117 146
e 117 151
e 117 155
e 117 156
e 117 157
e 117 158
e 117 185
e 117 188
e 117 232
e 118 119
e 118 120
e 118 159
e 118 162
e 118 170
e 118 175
e 118 183
e 118 189
e 118 228
e 118 229
e 118 246
e 118 250
e 119 120
e 119 159
e 119 186
e 119 190
e 119 197
e 119 227
e 119 230
e 119 231
e 119 238
e 119 244
e 119 251
e 120 159
e 120 163
e 120 171
e 120 184
e 120 187
e 120 191
e 120 198
e 120 200
e 120 239
e 120 247
e 121 122
e 121 123
e 121 124
e 121 137
e 121 156
e 121 168
e 121 172
e 121 180
e 121 186
e 121 187
e 121 211
e 121 213
e 122 123
e 122 125
e 122 129
e 122 134
e 122 186
e 122 187
e 122 211
e 122 214
e 122 222
e 122 235
e 123 130
e 123 138
e 123 173
e 123 176
e 123 181
e 123 186
e 123 187
e 123 194
e 123 211
e 123 215
e 123 223
e 124 125
e 124 137
e 124 156
e 124 168
e 124 172
e 124 180
e 124 189
e 124 190
e 124 191
e 124 213
e 124 216
e 124 217
e 125 129
e 125 134
e 125 189
e 125 190
e 125 191
e 125 214
e 125 216
e 125 217
e 125 222
e 125 235
e 126 127
e 126 192
e 126 234
e 126 235
e 126 236
e 126 237
e 126 250
e 126 251
e 127 192
e 127 234
e 127 235
e 127 236
e 127 237
e 127 250
e 127 251
e 127 254
e 128 160
e 128 161
e 128 166
e 128 192
e 128 193
e 128 194
e 128 195
e 128 238
e 128 239
e 128 245
e 129 130
e 129 131
e 129 132
e 129 134
e 129 164
e 129 214
e 129 218
e 129 219
e 129 222
e 129 235
e 130 131
e 130 132
e 130 138
e 130 164
e 130 173
e 130 176
e 130 181
e 130 194
e 130 215
e 130 218
e 130 219
e 130 223
e 131 132
e 131 139
e 131 157
e 131 164
e 131 169
e 131 177
e 131 218
e 131 219
e 131 236
e 132 135
e 132 140
e 132 158
e 132 164
e 132 174
e 132 178
e 132 182
e 132 195
e 132 218
e 132 219
e 132 237
e 133 134
e 133 135
e 133 136
e 133 155
e 133 165
e 133 167
e 133 179
e 133 193
e 133 197
e 133 198
e 133 212
e 133 220
e 133 221
e 133 234
e 134 135
e 134 165
e 134 197
e 134 198
e 134 214
e 134 220
e 134 221
e 134 222
e 134 235
e 135 140
e 135 158
e 135 165
e 135 174
e 135 178
e 135 182
e 135 195
e 135 197
e 135 198
e 135 220
e 135 221
e 135 237
e 136 137
e 136 138
e 136 139
e 136 140
e 136 155
e 136 167
e 136 179
e 136 193
e 136 200
e 136 212
e 136 224
e 136 225
e 136 226
e 136 234
e 137 138
e 137 139
e 137 140
e 137 156
e 137 168
e 137 172
e 137 180
e 137 200
e 137 213
e 137 224
e 137 225
e 137 226
e 138 139
e 138 140
e 138 173
e 138 176
e 138 181
e 138 194
e 138 200
e 138 215
e 138 223
e 138 224
e 138 225
e 138 226
e 139 140
e 139 157
e 139 169
e 139 177
e 139 200
e 139 224
e 139 225
e 139 226
e 139 236
e 140 158
e 140 174
e 140 178
e 140 182
e 140 195
e 140 200
e 140 224
e 140 225
e 140 226
e 140 237
e 141 142
e 141 143
e 141 148
e 141 160
e 141 167
e 141 168
e 141 169
e 141 199
e 141 201
e 141 227
e 141 240
e 141 241
e 142 143
e 142 145
e 142 150
e 142 153
e 142 167
e 142 168
e 142 169
e 142 201
e 142 227
e 142 240
e 142 241
e 143 146
e 143 151
e 143 167
e 143 168
e 143 169
e 143 188
e 143 201
e 143 227
e 143 240
e 143 241
e 144 145
e 144 146
e 144 149
e 144 152
e 144 161
e 144 172
e 144 173
e 144 174
e 144 204
e 144 228
e 144 242
e 145 146
e 145 150
e 145 153
e 145 172
e 145 173
e 145 174
e 145 204
e 145 228
e 145 242
e 146 151
e 146 172
e 146 173
e 146 174
e 146 188
e 146 204
e 146 228
e 146 242
e 147 154
e 147 164
e 147 165
e 147 185
e 147 201
e 147 204
e 147 205
e 147 209
e 147 210
e 147 233
e 148 149
e 148 150
e 148 151
e 148 160
e 148 176
e 148 177
e 148 178
e 148 199
e 148 209
e 148 229
e 148 230
e 149 150
e 149 151
e 149 152
e 149 161
e 149 176
e 149 177
e 149 178
e 149 209
e 149 229
e 149 230
e 150 151
e 150 153
e 150 176
e 150 177
e 150 178
e 150 209
e 150 229
e 150 230
e 151 176
e 151 177
e 151 178
e 151 188
e 151 209
e 151 229
e 151 230
e 152 153
e 152 161
e 152 179
e 152 180
e 152 181
e 152 182
e 152 210
e 152 231
e 152 243
e 153 179
e 153 180
e 153 181
e 153 182
e 153 210
e 153 231
e 153 243
e 154 164
e 154 165
e 154 183
e 154 184
e 154 185
e 154 201
e 154 204
e 154 209
e 154 210
e 154 233
e 155 156
e 155 157
e 155 158
e 155 167
e 155 179
e 155 185
e 155 193
e 155 212
e 155 232
e 155 234
e 156 157
e 156 158
e 156 168
e 156 172
e 156 180
e 156 185
e 156 213
e 156 232
e 157 158
e 157 169
e 157 177
e 157 185
e 157 232
e 157 236
e 158 174
e 158 178
e 158 182
e 158 185
e 158 195
e 158 232
e 158 237
e 159 203
e 159 208
e 159 211
e 159 221
e 159 226
e 159 241
e 159 242
e 159 245
e 160 161
e 160 193
e 160 194
e 160 195
e 160 199
e 160 238
e 160 239
e 160 245
e 161 193
e 161 194
e 161 195
e 161 238
e 161 239
e 161 245
e 162 163
e 162 170
e 162 175
e 162 183
e 162 189
e 162 196
e 162 228
e 162 229
e 162 246
e 162 250
e 163 171
e 163 184
e 163 187
e 163 191
e 163 196
e 163 198
e 163 200
e 163 239
e 163 247
e 164 165
e 164 185
e 164 201
e 164 204
e 164 209
e 164 210
e 164 218
e 164 219
e 164 233
e 165 185
e 165 197
e 165 198
e 165 201
e 165 204
e 165 209
e 165 210
e 165 220
e 165 221
e 165 233
e 166 192
e 166 199
e 166 222
e 166 223
e 166 246
e 166 247
e 166 252
e 167 168
e 167 169
e 167 179
e 167 193
e 167 201
e 167 212
e 167 227
e 167 234
e 167 240
e 167 241
e 168 169
e 168 172
e 168 180
e 168 201
e 168 213
e 168 227
e 168 240
e 168 241
e 169 177
e 169 201
e 169 227
e 169 236
e 169 240
e 169 241
e 170 171
e 170 175
e 170 183
e 170 189
e 170 202
e 170 203
e 170 228
e 170 229
e 170 246
e 170 250
e 171 184
e 171 187
e 171 191
e 171 198
e 171 200
e 171 202
e 171 203
e 171 239
e 171 247
e 172 173
e 172 174
e 172 180
e 172 204
e 172 213
e 172 228
e 172 242
e 173 174
e 173 176
e 173 181
e 173 194
e 173 204
e 173 215
e 173 223
e 173 228
e 173 242
e 174 178
e 174 182
e 174 195
e 174 204
e 174 228
e 174 237
e 174 242
e 175 183
e 175 189
e 175 206
e 175 207
e 175 208
e 175 228
e 175 229
e 175 246
e 175 250
e 176 177
e 176 178
e 176 181
e 176 194
e 176 209
e 176 215
e 176 223
e 176 229
e 176 230
e 177 178
e 177 209
e 177 229
e 177 230
e 177 236
e 178 182
e 178 195
e 178 209
e 178 229
e 178 230
e 178 237
e 179 180
e 179 181
e 179 182
e 179 193
e 179 210
e 179 212
e 179 231
e 179 234
e 179 243
e 180 181
e 180 182
e 180 210
e 180 213
e 180 231
e 180 243
e 181 182
e 181 194
e 181 210
e 181 215
e 181 223
e 181 231
e 181 243
e 182 195
e 182 210
e 182 231
e 182 237
e 182 243
e 183 184
e 183 189
e 183 228
e 183 229
e 183 246
e 183 250
e 184 187
e 184 191
e 184 198
e 184 200
e 184 239
e 184 247
e 185 201
e 185 204
e 185 209
e 185 210
e 185 232
e 185 233
e 186 187
e 186 190
e 186 197
e 186 211
e 186 227
e 186 230
e 186 231
e 186 238
e 186 244
e 186 251
e 187 191
e 187 198
e 187 200
e 187 211
e 187 239
e 187 247
e 188 212
e 188 213
e 188 214
e 188 215
e 188 233
e 188 244
e 188 248
e 188 249
e 189 190
e 189 191
e 189 216
e 189 217
e 189 228
e 189 229
e 189 246
e 189 250
e 190 191
e 190 197
e 190 216
e 190 217
e 190 227
e 190 230
e 190 231
e 190 238
e 190 244
e 190 251
e 191 198
e 191 200
e 191 216
e 191 217
e 191 239
e 191 247
e 192 234
e 192 235
e 192 236
e 192 237
e 192 250
e 192 251
e 193 194
e 193 195
e 193 212
e 193 234
e 193 238
e 193 239
e 193 245
e 194 195
e 194 215
e 194 223
e 194 238
e 194 239
e 194 245
e 195 237
e 195 238
e 195 239
e 195 245
e 196 202
e 196 207
e 196 217
e 196 219
e 196 225
e 196 243
e 196 249
e 196 252
e 197 198
e 197 220
e 197 221
e 197 227
e 197 230
e 197 231
e 197 238
e 197 244
e 197 251
e 198 200
e 198 220
e 198 221
e 198 239
e 198 247
e 199 222
e 199 223
e 199 246
e 199 247
e 199 252
e 200 224
e 200 225
e 200 226
e 200 239
e 200 247
e 201 204
e 201 209
e 201 210
e 201 227
e 201 233
e 201 240
e 201 241
e 202 203
e 202 207
e 202 217
e 202 219
e 202 225
e 202 243
e 202 249
e 202 252
e 203 208
e 203 211
e 203 221
e 203 226
e 203 241
e 203 242
e 203 245
e 204 209
e 204 210
e 204 228
e 204 233
e 204 242
e 205 206
e 205 216
e 205 218
e 205 220
e 205 224
e 205 232
e 205 240
e 205 248
e 206 207
e 206 208
e 206 216
e 206 218
e 206 220
e 206 224
e 206 232
e 206 240
e 206 248
e 207 208
e 207 217
e 207 219
e 207 225
e 207 243
e 207 249
e 207 252
e 208 211
e 208 221
e 208 226
e 208 241
e 208 242
e 208 245
e 209 210
e 209 229
e 209 230
e 209 233
e 210 231
e 210 233
e 210 243
e 211 221
e 211 226
e 211 241
e 211 242
e 211 245
e 212 213
e 212 214
e 212 215
e 212 233
e 212 234
e 212 244
e 212 248
e 212 249
e 213 214
e 213 215
e 213 233
e 213 244
e 213 248
e 213 249
e 214 215
e 214 222
e 214 233
e 214 235
e 214 244
e 214 248
e 214 249
e 215 223
e 215 233
e 215 244
e 215 248
e 215 249
e 216 217
e 216 218
e 216 220
e 216 224
e 216 232
e 216 240
e 216 248
e 217 219
e 217 225
e 217 243
e 217 249
e 217 252
e 218 219
e 218 220
e 218 224
e 218 232
e 218 240
e 218 248
e 219 225
e 219 243
e 219 249
e 219 252
e 220 221
e 220 224
e 220 232
e 220 240
e 220 248
e 221 226
e 221 241
e 221 242
e 221 245
e 222 223
e 222 235
e 222 246
e 222 247
e 222 252
e 223 246
e 223 247
e 223 252
e 224 225
e 224 226
e 224 232
e 224 240
e 224 248
e 225 226
e 225 243
e 225 249
e 225 252
e 226 241
e 226 242
e 226 245
e 227 230
e 227 231
e 227 238
e 227 240
e 227 241
e 227 244
e 227 251
e 228 229
e 228 242
e 228 246
e 228 250
e 229 230
e 229 246
e 229 250
e 230 231
e 230 238
e 230 244
e 230 251
e 231 238
e 231 243
e 231 244
e 231 251
e 232 240
e 232 248
e 233 244
e 233 248
e 233 249
e 234 235
e 234 236
e 234 237
e 234 250
e 234 251
e 235 236
e 235 237
e 235 250
e 235 251
e 236 237
e 236 250
e 236 251
e 237 250
e 237 251
e 238 239
e 238 244
e 238 245
e 238 251
e 239 245
e 239 247
e 240 241
e 240 248
e 241 242
e 241 245
e 242 245
e 243 249
e 243 252
e 244 248
e 244 249
e 244 251
e 246 247
e 246 250
e 246 252
e 247 252
e 248 249
e 249 252
e 250 251
e 253 254
